NAME : amz1371.95766_95766.tour
COMMENT : Cost = 95766_95766
COMMENT : Found by LKH-AMZ [Keld Helsgaun] Sun May 11 13:09:57 2025
COMMENT : TW viol.: 0 #: 0
TYPE : TOUR
DIMENSION : 169
TOUR_SECTION
8
125
139
106
71
79
134
110
13
168
49
145
68
144
7
104
69
140
73
158
3
14
166
81
60
29
85
78
141
118
65
126
44
46
164
96
74
95
52
28
127
151
143
32
167
55
103
27
101
77
161
157
4
75
19
107
18
138
5
94
115
117
63
15
91
149
135
41
89
72
142
40
152
90
20
42
87
150
121
119
153
66
43
83
92
48
36
128
34
112
169
58
45
33
124
116
22
100
26
162
86
84
23
54
56
37
132
123
30
137
113
59
163
114
122
165
76
64
35
31
159
12
11
2
111
53
6
50
147
129
24
62
130
88
16
97
98
133
80
102
154
25
108
146
38
9
109
57
70
17
61
1
136
156
160
148
39
67
93
99
120
105
51
21
10
47
131
82
155
-1
EOF
